[1, 2, 2, 5, 5, 7, 8, 6, 6, 11, 15, 11, 12, 14, 14, 11, 14, 19, 22, 20, 21, 31, 27, 26, 25, 26, 27, 28, 29, 30, 29, 31, 33, 36, 36, 35, 37, 38, 40, 42, 37, 41, 41, 42, 46, 46, 47, 48, 49, 50, 49, 50, 52, 39, 56, 59, 58, 59, 60, 60, 63, 66, 67, 64, 67, 66, 69, 70, 72, 71, 67, 68, 71, 74, 74, 78, 77, 76, 79, 81, 81, 82, 84, 84, 86, 86, 83, 84, 82, 93, 96, 98, 94, 94, 95, 96, 100, 100, 100, 101, 99, 99, 103, 91, 99, 100, 107, 115, 113, 112, 116, 116, 118, 113, 117, 112, 114, 115, 119, 121, 120, 122, 124, 125, 126, 123, 125, 127, 126, 128, 129, 127, 133, 134, 135, 136, 137, 140, 140, 141, 146, 144, 143, 145, 142, 146, 147, 148, 149, 145, 144, 143, 146, 152, 156, 155, 160, 159, 165, 161, 163, 164, 166, 165, 164, 167, 167, 168, 170, 171, 169, 172, 172, 175, 174, 180, 180, 177, 180, 181, 179, 179, 184, 183, 185, 185, 188, 189, 189, 190, 190, 191, 196, 196, 197, 194, 195, 198, 196, 197, 198, 202, 203, 204, 207, 206, 207, 212, 205, 210, 213, 213, 215, 214, 212, 216, 219, 217, 213, 214, 213, 216, 220, 222, 225, 226, 228, 227, 229, 230, 231, 236, 235, 234, 233, 237, 237, 238, 239, 240, 241, 242, 243, 240, 247, 246, 245, 245, 244, 249, 251, 248, 244, 246, 250, 256, 258, 257, 262, 261, 259, 260, 263, 264, 267, 267, 267, 268, 269, 269, 271, 275, 277, 275, 276, 274, 273, 278, 279, 280]
[1, 1, 5, 5, 6, 18, 19, 25, 25, 27, 28, 28, 38, 39, 41, 41, 45, 45, 46, 47, 51, 55, 58, 58, 65, 65, 66, 66, 66, 70, 70, 71, 73, 73, 75, 77, 85, 85, 93, 93, 95, 95, 97, 98, 98, 98, 100, 102, 111, 111, 112, 112, 113, 114, 114, 116, 117, 122, 123, 124, 124, 126, 126, 127, 128, 132, 133, 144, 144, 148, 151, 155, 159, 160, 162, 163, 163, 166, 166, 169, 170, 171, 171, 173, 178, 178, 179, 179, 179, 180, 187, 189, 189, 193, 194, 205, 206, 206, 211, 211, 213, 213, 214, 225, 228, 229, 230, 233, 234, 240, 244, 244, 250, 255, 257, 258, 259, 261, 262, 263, 272, 273, 276, 277, 278, 284, 284, 290, 293, 298, 299, 303, 305, 305, 306, 308, 325, 326, 327, 327, 330, 336, 338, 338, 341, 344, 344, 345, 345, 345, 347, 348, 350, 352, 352, 354, 355, 356, 357, 359, 359, 364, 364, 369, 377, 377, 377, 379, 381, 391, 391, 394, 394, 397, 398, 400, 406, 407, 411, 413, 414, 418, 418, 420, 421, 421, 426, 427, 434, 441, 442, 442, 443, 443, 444, 445, 445, 450, 450, 452, 455, 457, 457, 458, 458, 458, 459, 461, 463, 463, 466, 467, 467, 468, 468, 472, 473, 474, 474, 474, 484, 485, 485, 490, 490, 492, 492, 493, 494, 494, 495, 497, 498, 500, 503, 505, 508, 509, 511, 513, 515, 515, 517, 518, 518, 519, 520, 522, 522, 525, 526, 527, 528, 535, 538, 540, 542, 545, 545, 545, 546, 552, 553, 553, 554, 555, 557, 559, 559, 562, 562, 564, 565, 569, 576, 584, 584, 586, 586, 588, 588, 594, 594, 595, 596, 597, 599, 599, 605, 606, 606, 609, 613, 615, 616, 616, 617, 617, 620, 621, 627, 634, 639, 639, 640, 643, 643, 650, 656, 656, 656, 657, 657, 657, 657, 658, 664, 669, 669, 671, 673, 673, 674, 677, 678, 680, 681, 683, 683, 685, 692, 693, 698, 699, 701, 701, 703, 703, 703, 705, 712, 717, 718, 721, 721, 724, 724, 725, 727, 737, 737, 737, 738, 746, 746, 752, 753, 753, 753, 760, 763, 767, 769, 769, 774, 777, 782, 783, 785, 786, 787, 788, 791, 792, 797, 797, 798, 800, 802, 802, 805, 806, 807, 813, 816, 817, 818, 820, 824, 824, 824, 826, 826, 828, 831, 832, 832, 833, 835, 836, 837, 841, 841, 842, 842, 843, 848, 850, 850, 850, 861, 862, 862, 863, 863, 866, 871, 872, 872, 875, 882, 882, 884, 885, 885, 888, 892, 899, 902, 902, 904, 905, 912, 913, 915, 918, 918, 920, 920, 920, 922, 922, 927, 930, 930, 932, 932, 943, 948, 948, 950, 954, 955, 957, 958, 961, 961, 962, 962, 965, 969, 971, 972, 973, 976, 976, 977, 978, 980, 980, 983, 984, 999, 1001, 1001, 1004, 1005, 1007, 1008, 1008, 1015, 1015, 1016, 1016, 1016, 1017, 1020, 1021, 1021, 1024, 1030, 1031, 1034, 1034, 1039, 1040, 1043, 1043, 1048, 1048, 1049, 1049, 1049, 1049, 1050, 1050, 1051, 1052, 1052, 1055, 1058, 1061, 1063, 1064, 1065, 1069, 1073, 1073, 1074, 1075, 1078, 1079, 1084, 1085, 1086, 1096, 1097, 1099, 1100, 1103, 1103, 1103, 1105, 1105, 1111, 1111, 1112, 1113, 1115, 1116, 1121, 1121, 1123, 1127, 1129, 1129, 1129, 1134, 1135, 1136, 1137, 1142, 1142, 1144, 1144, 1145, 1148, 1150, 1151, 1151, 1152, 1152, 1153, 1155, 1156, 1156, 1157, 1157, 1171, 1174, 1174, 1178, 1183, 1184, 1186, 1186, 1187, 1191, 1192, 1194, 1196, 1196, 1198, 1199, 1199, 1199, 1209, 1209, 1210, 1213, 1215, 1215, 1215, 1215, 1216, 1218, 1227, 1227, 1228, 1228, 1230, 1230, 1231, 1231, 1232, 1234, 1235, 1237, 1238, 1240, 1240, 1241, 1241, 1243, 1249, 1252, 1259, 1259, 1260, 1260, 1262, 1263, 1264, 1270, 1276, 1278, 1280, 1280, 1281, 1282, 1282, 1284, 1289, 1294, 1294, 1295, 1295, 1295, 1296, 1298, 1299, 1309, 1311, 1311, 1311, 1317, 1319, 1320, 1321, 1322, 1322, 1325, 1327, 1327, 1328, 1328, 1328, 1328, 1332, 1334, 1337, 1340, 1342, 1344, 1346, 1348, 1349, 1351, 1353, 1355, 1355, 1359, 1359, 1362, 1372, 1373, 1376, 1378, 1388, 1391, 1392, 1394, 1395, 1399, 1399, 1405, 1405, 1405, 1406, 1408, 1408, 1408, 1409, 1413, 1414, 1416, 1419, 1420, 1420, 1423, 1423, 1425, 1425, 1427, 1431, 1431, 1433, 1434, 1435, 1435, 1442, 1444, 1444, 1452, 1453, 1453, 1454, 1454, 1457, 1460, 1460, 1461, 1461, 1461, 1463, 1470, 1471, 1472, 1473, 1476, 1476, 1480, 1480, 1487, 1494, 1494, 1494, 1494, 1495, 1497, 1501, 1506, 1506, 1508, 1510, 1510, 1511, 1513, 1517, 1518, 1519, 1519, 1520, 1520, 1521, 1521, 1528, 1541, 1549, 1550, 1553, 1554, 1555, 1559, 1559, 1562, 1563, 1564, 1568, 1575, 1577, 1583, 1583, 1589, 1592, 1592, 1599, 1600, 1601, 1601, 1608, 1608, 1609, 1610, 1610, 1619, 1621, 1623, 1624, 1625, 1627, 1628, 1631, 1631, 1632, 1633, 1634, 1634, 1635, 1639, 1639, 1640, 1640, 1643, 1644, 1645, 1650, 1653, 1655, 1656, 1661, 1661, 1661, 1662, 1665, 1668, 1670, 1671, 1675, 1675, 1680, 1684, 1684, 1684, 1687, 1687, 1687, 1688, 1699, 1699, 1700, 1700, 1702, 1702, 1704, 1704, 1708, 1710, 1710, 1711, 1714, 1714, 1720, 1722, 1722, 1729, 1732, 1732, 1733, 1733, 1736, 1737, 1739, 1739, 1741, 1743, 1745, 1747, 1747, 1752, 1755, 1755, 1757, 1757, 1757, 1759, 1759, 1764, 1767, 1767, 1768, 1772, 1772, 1772, 1774, 1776, 1780, 1786, 1786, 1789, 1789, 1793, 1794, 1795, 1799, 1799, 1800, 1800, 1801, 1807, 1809, 1810, 1813, 1813, 1815, 1817, 1817, 1822, 1828, 1832, 1834, 1839, 1843, 1847, 1850, 1852, 1852, 1854, 1857, 1858, 1858, 1862, 1862, 1867, 1869, 1869, 1869, 1870, 1870, 1871, 1871, 1876, 1877, 1883, 1886, 1886, 1886, 1886, 1887, 1887, 1890, 1899, 1904, 1911, 1913, 1913, 1914, 1915, 1918, 1918, 1920, 1921, 1923, 1929, 1930, 1935, 1941, 1942, 1942, 1946, 1948, 1948, 1952, 1953, 1954, 1954, 1958, 1958, 1964, 1967, 1971, 1973, 1974, 1982, 1983, 1983, 1985, 1987, 1989, 1989, 1990, 1991, 1992, 1993, 1993, 1994, 1994, 2000, 2001, 2001, 2002, 2002, 2004, 2008, 2010, 2011, 2011, 2012, 2012, 2016, 2019, 2019, 2019, 2020, 2023, 2023, 2024, 2031, 2036, 2036, 2036, 2038, 2038, 2047, 2050, 2052, 2052, 2052, 2052, 2053, 2055, 2059, 2064, 2064, 2065, 2065, 2066, 2069, 2071, 2072, 2075, 2077, 2077, 2078, 2078, 2092, 2092, 2093, 2094, 2095, 2095, 2096, 2096, 2097, 2097, 2101, 2111, 2116, 2116, 2117, 2117, 2118, 2119, 2119, 2120, 2123, 2124, 2124, 2126, 2129, 2131, 2131, 2132, 2132, 2132, 2143, 2146, 2156, 2158, 2162, 2165, 2165, 2165, 2165, 2166, 2166, 2167, 2169, 2172, 2179, 2180, 2181, 2183, 2186, 2187, 2189, 2189, 2193, 2195, 2196, 2196, 2197, 2197, 2202, 2203, 2211, 2213, 2214, 2215, 2216, 2219, 2219, 2219, 2223, 2225, 2227, 2227, 2231, 2232, 2236, 2236, 2237, 2237, 2238, 2243, 2252, 2253, 2257, 2257, 2258, 2258, 2260, 2260, 2271, 2272, 2272, 2273, 2273, 2277, 2277, 2278, 2279, 2280, 2280, 2281, 2281, 2283, 2290, 2290, 2291, 2291, 2294, 2299, 2302, 2302, 2303, 2307, 2315, 2315, 2315, 2317, 2317, 2325, 2325, 2330, 2330, 2330, 2332, 2334, 2338, 2343, 2343, 2344, 2344, 2346, 2346, 2349, 2351, 2353, 2355, 2358, 2358, 2364, 2365, 2367, 2371, 2371, 2372, 2376, 2376, 2390, 2391, 2392, 2394, 2395, 2395, 2396, 2396, 2397, 2401, 2402, 2405, 2406, 2411, 2411, 2411, 2412, 2419, 2421, 2421, 2425, 2426, 2429, 2429, 2433, 2434, 2435, 2436, 2438, 2438, 2441, 2443, 2443, 2446, 2447, 2447, 2448, 2451, 2468, 2468, 2474, 2475, 2475, 2478, 2479, 2480, 2481, 2482, 2487, 2488, 2489, 2490, 2493, 2494, 2495, 2499, 2500, 2500, 2502, 2504, 2505, 2508, 2509, 2512, 2512, 2521, 2521, 2521, 2522, 2525, 2529, 2532, 2535, 2536, 2536, 2538, 2539, 2539, 2540, 2541, 2541, 2545, 2546, 2546, 2548, 2549, 2551, 2551, 2552, 2552, 2556, 2556, 2557, 2568, 2570, 2570, 2574, 2578, 2580, 2581, 2581, 2582, 2587, 2591, 2591, 2596, 2596, 2604, 2604, 2609, 2609, 2609, 2610, 2610, 2610, 2610, 2617, 2623, 2623, 2627, 2628, 2629, 2630, 2631, 2632, 2633, 2634, 2637, 2637, 2639, 2643, 2646, 2653, 2653, 2654, 2654, 2657, 2673, 2674, 2674, 2675, 2675, 2679, 2684, 2685, 2689, 2689, 2690, 2690, 2690, 2691, 2693, 2694, 2700, 2700, 2704, 2705, 2713, 2714, 2717, 2717, 2724, 2724, 2725, 2726, 2726, 2730, 2732, 2735, 2736, 2738, 2739, 2740, 2747, 2747, 2748, 2749, 2750, 2750, 2752, 2754, 2754, 2759, 2760, 2767, 2769, 2773, 2774, 2778, 2779, 2779, 2781, 2784, 2786]
